000 000 000 000 000 000 000 000 001 000 000 000 001 001 001 001 001 001 001 001 001 002 003 002 002 002 001 002 001 001 001
000 000 000 000 000 000 000 001 001 001 001 001 001 001 001 002 001 001 001 001 001 002 002 002 002 002 001 001 001 002 000
000 000 000 000 000 000 000 001 000 000 000 001 001 001 001 001 001 002 002 002 000 001 002 002 002 003 002 002 001 002 001
000 000 000 000 000 001 001 001 001 001 001 001 001 001 001 001 001 002 002 001 002 001 001 001 000 002 002 002 003 004 002
000 000 000 000 001 001 001 001 000 000 000 001 001 001 001 001 002 001 001 001 001 001 001 001 001 002 003 003 006 009 004
000 000 001 001 001 001 001 000 000 000 001 001 001 001 001 001 002 001 001 001 001 001 001 001 001 003 005 005 006 009 005
000 000 000 001 000 000 000 001 001 001 001 001 001 001 000 001 001 001 001 001 000 001 001 001 002 003 007 007 006 007 007
000 000 000 001 000 001 000 000 001 001 001 001 001 000 001 001 001 001 001 001 001 001 001 001 002 003 004 008 004 006 006
000 000 000 001 000 001 000 000 000 000 000 000 001 000 000 001 001 000 001 001 001 001 001 002 002 003 004 007 006 004 004
000 000 000 000 000 000 000 000 000 000 000 000 000 000 000 001 001 001 001 001 001 001 001 002 005 004 004 006 007 004 004
000 000 000 000 000 000 000 000 000 000 000 000 000 000 000 000 001 000 001 001 001 001 002 003 003 005 004 005 005 004 002
000 000 000 000 000 000 000 000 000 000 000 000 000 000 000 000 001 000 000 001 001 002 002 003 003 004 006 004 003 004 002
000 000 000 000 000 000 000 000 000 000 000 000 000 000 000 000 000 000 000 000 002 002 002 002 003 003 004 003 003 003 002
000 000 000 000 000 000 000 000 000 000 000 000 000 000 000 000 000 000 000 000 002 002 001 002 002 003 002 001 002 002 002
000 000 -99 000 000 000 000 000 000 000 000 000 000 001 000 000 000 000 000 001 000 001 001 001 002 001 002 001 001 002 003
000 -99 -99 -99 000 000 000 000 000 000 000 000 000 000 000 000 000 000 000 001 000 001 000 000 001 001 002 000 001 002 002
000 -99 -99 -99 000 000 000 000 000 000 000 000 000 000 000 000 000 000 000 001 000 000 000 000 000 000 001 001 000 001 001
000 000 000 -99 -99 000 000 001 000 001 000 000 000 000 000 000 000 000 000 000 000 000 000 000 000 000 000 001 000 001 001
000 000 000 -99 -99 000 000 000 000 000 001 000 000 000 000 000 000 000 000 000 000 000 000 000 000 001 001 001 -99 000 000
000 000 000 000 000 001 000 000 000 000 000 000 000 000 000 000 000 000 000 000 000 000 000 -99 -99 001 001 -99 -99 -99 000
000 000 000 000 000 000 000 000 000 000 000 000 000 000 000 000 000 000 000 000 000 000 000 -99 -99 000 000 -99 -99 -99 -99
000 000 000 000 001 000 000 000 000 000 000 000 000 000 000 000 000 000 000 000 000 000 000 -99 -99 000 000 -99 -99 -99 -99
000 000 000 000 001 000 000 000 000 000 000 000 000 000 000 000 000 000 000 000 000 000 000 -99 -99 -99 -99 -99 -99 -99 -99
000 000 000 000 000 000 000 000 000 000 000 000 000 000 -99 000 000 000 000 000 000 000 000 -99 -99 -99 -99 -99 -99 -99 001
000 000 000 000 000 000 000 000 000 000 000 -99 000 000 000 000 000 000 000 000 000 000 000 -99 -99 -99 -99 -99 -99 -99 001
000 000 000 000 000 000 000 000 000 000 -99 -99 000 000 000 000 000 000 000 000 -99 000 000 -99 -99 -99 -99 -99 -99 001 001
000 000 000 000 000 000 000 000 000 000 000 -99 -99 000 000 000 000 000 000 000 000 000 000 -99 -99 -99 -99 -99 -99 001 001
000 000 000 -99 000 000 000 000 000 000 -99 -99 000 000 000 000 000 000 000 000 000 000 000 -99 -99 -99 -99 -99 -99 001 000
000 000 000 -99 000 000 000 000 000 000 000 -99 000 000 000 000 000 000 000 000 000 000 -99 -99 -99 -99 -99 -99 -99 001 000
000 000 000 000 000 000 -99 000 000 000 000 000 000 000 000 000 000 000 000 000 -99 000 -99 -99 -99 -99 -99 -99 -99 -99 -99
000 000 000 000 000 000 -99 000 000 000 000 000 000 000 000 000 000 000 000 000 -99 000 -99 -99 -99 -99 -99 -99 -99 -99 -99
000 000 000 000 000 000 -99 000 000 000 000 000 000 000 000 000 -99 000 000 -99 -99 -99 -99 -99 000 -99 -99 -99 -99 -99 -99
000 000 000 000 000 000 -99 000 000 000 000 000 000 000 000 -99 -99 000 000 -99 -99 -99 -99 000 000 000 -99 000 -99 -99 000
000 000 000 000 000 000 000 000 000 000 000 000 000 000 000 000 000 000 -99 000 -99 -99 -99 000 000 000 -99 000 000 000 000
000 000 000 000 000 000 000 000 000 000 000 000 000 000 000 -99 000 -99 -99 000 000 -99 000 000 000 000 000 000 000 000 000
000 000 000 000 000 000 000 000 000 000 000 000 000 000 000 000 000 -99 000 000 000 -99 000 000 000 000 000 000 000 000 000
000 000 -99 000 000 000 000 000 000 000 000 000 000 000 000 000 000 -99 000 000 000 000 000 000 000 000 000 000 000 000 000
000 -99 000 000 000 000 000 000 000 000 000 000 000 000 000 000 -99 -99 000 -99 000 000 000 000 000 000 000 000 000 000 000
000 -99 000 000 000 000 000 000 -99 -99 -99 000 000 000 000 000 -99 000 -99 000 000 000 000 000 000 000 000 000 -99 -99 -99
000 000 000 000 000 -99 000 000 -99 -99 000 000 000 000 000 000 000 000 000 000 000 000 000 000 000 000 000 000 -99 -99 -99
000 000 000 000 000 -99 -99 000 -99 -99 000 000 000 000 000 000 000 000 000 000 000 000 000 000 000 000 000 -99 -99 -99 -99
000 000 000 000 -99 -99 -99 000 -99 000 000 000 000 000 000 000 000 000 000 000 000 -99 000 000 000 000 -99 -99 -99 -99 -99
000 000 -99 -99 -99 -99 -99 000 -99 000 000 000 000 000 000 000 000 000 000 000 000 000 000 000 000 000 -99 -99 -99 -99 -99
000 -99 -99 -99 -99 -99 -99 -99 -99 000 000 000 000 000 000 000 000 000 000 000 000 000 000 -99 000 000 -99 000 -99 -99 -99
000 -99 -99 -99 -99 -99 -99 -99 -99 000 000 000 000 000 000 000 000 000 000 000 000 000 000 000 000 -99 000 000 -99 -99 -99
000 -99 -99 -99 -99 -99 -99 -99 000 000 000 000 000 000 000 000 000 000 000 000 000 000 -99 000 000 000 000 000 -99 -99 000
000 -99 -99 -99 -99 -99 -99 -99 000 000 000 000 000 000 000 000 -99 000 000 000 000 000 000 000 000 000 000 -99 -99 -99 -99
-99 -99 -99 -99 -99 -99 -99 -99 000 000 000 000 000 000 000 -99 -99 000 -99 000 000 000 000 000 000 000 000 000 -99 -99 -99
-99 -99 -99 -99 -99 -99 -99 -99 -99 000 000 000 000 000 000 -99 -99 -99 000 000 000 000 000 000 000 000 000 000 -99 -99 -99
-99 -99 -99 -99 -99 -99 -99 -99 000 000 000 000 -99 000 000 -99 -99 -99 000 000 000 000 000 000 000 000 000 -99 -99 -99 -99
-99 -99 -99 -99 -99 -99 -99 -99 000 -99 -99 000 000 000 000 -99 -99 -99 000 000 000 000 -99 -99 -99 000 000 -99 -99 -99 -99
-99 -99 -99 -99 -99 -99 -99 -99 000 -99 -99 -99 000 000 -99 -99 -99 -99 000 000 000 -99 -99 -99 -99 000 -99 -99 -99 -99 -99
-99 -99 -99 -99 -99 -99 -99 -99 -99 -99 -99 -99 000 -99 -99 -99 -99 000 000 000 000 000 -99 -99 000 -99 -99 -99 -99 -99 -99
-99 -99 -99 -99 -99 -99 -99 -99 -99 -99 -99 000 000 -99 -99 -99 000 000 000 000 000 000 -99 -99 -99 -99 -99 -99 -99 -99 -99
-99 -99 -99 -99 -99 -99 -99 -99 -99 -99 -99 -99 -99 -99 -99 -99 -99 000 -99 -99 000 -99 -99 -99 -99 -99 -99 -99 -99 -99 -99
